
  32    4
  10   10   10   10

   0   0   0   0   0   8 2 3 4 6 7 9 10 12 
   5  10  10  10  10   6 31 22 16 14 11 5 
   1  10  10  10  10  10 30 26 25 23 22 21 17 15 14 13 
   1  10  10  10  10   4 21 18 14 8 
   3  10  10  10  10   7 26 25 24 23 19 18 17 
   3  10  10  10  10   6 29 28 24 21 17 14 
   9  10  10  10  10   5 26 23 20 19 18 
   9  10  10  10  10   4 27 22 20 17 
   2  10  10  10  10   4 25 21 20 17 
   9  10  10  10  10   4 23 22 20 17 
   3  10  10  10  10   3 19 18 17 
   2  10  10  10  10   2 24 15 
   7  10  10  10  10   2 20 18 
   4  10  10  10  10   1 19 
   5  10  10  10  10   1 18 
   7  10  10  10  10   1 21 
   2  10  10  10  10   1 32
   9  10  10  10  10   1 32
   1  10  10  10  10   1 32
   2  10  10  10  10   1 32
  10  10  10  10  10   1 32
   3  10  10  10  10   1 32
   4  10  10  10  10   1 32
   2  10  10  10  10   1 32
   7  10  10  10  10   1 32
   1  10  10  10  10   1 32
   1  10  10  10  10   1 32
   3  10  10  10  10   1 32
   2  10  10  10  10   1 32
   4  10  10  10  10   1 32
  10  10  10  10  10   1 32
   0   0   0   0   0   0 
